p cnf 999 1590
112 0
133 0
158 0
167 0
176 0
195 0
242 0
334 0
372 0
424 0
437 0
445 0
452 0
473 0
489 0
516 0
547 0
564 0
598 0
651 0
669 0
739 0
778 0
865 0
913 0
935 0
944 0
956 0
971 0
999 0
-212 0
-312 0
-412 0
-512 0
-612 0
-712 0
-812 0
-912 0
-113 0
-213 0
-313 0
-413 0
-513 0
-613 0
-713 0
-813 0
-116 0
-216 0
-316 0
-416 0
-616 0
-716 0
-816 0
-916 0
-124 0
-224 0
-324 0
-524 0
-624 0
-724 0
-824 0
-924 0
-233 0
-333 0
-433 0
-533 0
-633 0
-733 0
-833 0
-933 0
-134 0
-234 0
-434 0
-534 0
-634 0
-734 0
-834 0
-934 0
-135 0
-235 0
-335 0
-435 0
-535 0
-635 0
-735 0
-835 0
-137 0
-237 0
-337 0
-537 0
-637 0
-737 0
-837 0
-937 0
-139 0
-239 0
-339 0
-439 0
-539 0
-639 0
-839 0
-939 0
-142 0
-342 0
-442 0
-542 0
-642 0
-742 0
-842 0
-942 0
-144 0
-244 0
-344 0
-444 0
-544 0
-644 0
-744 0
-844 0
-145 0
-245 0
-345 0
-545 0
-645 0
-745 0
-845 0
-945 0
-147 0
-247 0
-347 0
-447 0
-647 0
-747 0
-847 0
-947 0
-151 0
-251 0
-351 0
-451 0
-551 0
-751 0
-851 0
-951 0
-152 0
-252 0
-352 0
-552 0
-652 0
-752 0
-852 0
-952 0
-156 0
-256 0
-356 0
-456 0
-556 0
-656 0
-756 0
-856 0
-258 0
-358 0
-458 0
-558 0
-658 0
-758 0
-858 0
-958 0
-164 0
-264 0
-364 0
-464 0
-664 0
-764 0
-864 0
-964 0
-165 0
-265 0
-365 0
-465 0
-565 0
-665 0
-765 0
-965 0
-267 0
-367 0
-467 0
-567 0
-667 0
-767 0
-867 0
-967 0
-169 0
-269 0
-369 0
-469 0
-569 0
-769 0
-869 0
-969 0
-171 0
-271 0
-371 0
-471 0
-571 0
-671 0
-771 0
-871 0
-172 0
-272 0
-472 0
-572 0
-672 0
-772 0
-872 0
-972 0
-173 0
-273 0
-373 0
-573 0
-673 0
-773 0
-873 0
-973 0
-276 0
-376 0
-476 0
-576 0
-676 0
-776 0
-876 0
-976 0
-178 0
-278 0
-378 0
-478 0
-578 0
-678 0
-878 0
-978 0
-189 0
-289 0
-389 0
-589 0
-689 0
-789 0
-889 0
-989 0
-295 0
-395 0
-495 0
-595 0
-695 0
-795 0
-895 0
-995 0
-198 0
-298 0
-398 0
-498 0
-698 0
-798 0
-898 0
-998 0
-199 0
-299 0
-399 0
-499 0
-599 0
-699 0
-799 0
-899 0
-122 0
-132 0
-162 0
-182 0
-192 0
-123 0
-143 0
-153 0
-163 0
-183 0
-193 0
-115 0
-125 0
-155 0
-175 0
-185 0
-126 0
-136 0
-146 0
-166 0
-186 0
-196 0
-117 0
-127 0
-157 0
-177 0
-187 0
-197 0
-118 0
-128 0
-138 0
-148 0
-168 0
-188 0
-222 0
-232 0
-262 0
-282 0
-292 0
-322 0
-332 0
-362 0
-382 0
-392 0
-314 0
-354 0
-374 0
-384 0
-394 0
-422 0
-432 0
-462 0
-482 0
-492 0
-423 0
-443 0
-453 0
-463 0
-483 0
-493 0
-414 0
-454 0
-474 0
-484 0
-494 0
-415 0
-425 0
-455 0
-475 0
-485 0
-417 0
-427 0
-457 0
-477 0
-487 0
-497 0
-419 0
-429 0
-449 0
-459 0
-479 0
-514 0
-554 0
-574 0
-584 0
-594 0
-526 0
-536 0
-546 0
-566 0
-586 0
-596 0
-517 0
-527 0
-557 0
-577 0
-587 0
-597 0
-518 0
-528 0
-538 0
-548 0
-568 0
-588 0
-611 0
-621 0
-631 0
-641 0
-661 0
-681 0
-691 0
-619 0
-629 0
-649 0
-659 0
-679 0
-718 0
-728 0
-738 0
-748 0
-768 0
-788 0
-719 0
-729 0
-749 0
-759 0
-779 0
-815 0
-825 0
-855 0
-875 0
-885 0
-911 0
-921 0
-931 0
-941 0
-961 0
-981 0
-991 0
-923 0
-943 0
-953 0
-963 0
-983 0
-993 0
-914 0
-954 0
-974 0
-984 0
-994 0
-915 0
-925 0
-955 0
-975 0
-985 0
-926 0
-936 0
-946 0
-966 0
-986 0
-996 0
-919 0
-929 0
-949 0
-959 0
-979 0
-111 0
-114 0
-119 0
-131 0
-154 0
-159 0
-161 0
-174 0
-179 0
-191 0
-194 0
-241 0
-243 0
-246 0
-248 0
-249 0
-331 0
-336 0
-338 0
-375 0
-377 0
-379 0
-421 0
-426 0
-428 0
-431 0
-436 0
-438 0
-441 0
-446 0
-448 0
-481 0
-486 0
-488 0
-511 0
-515 0
-519 0
-541 0
-543 0
-549 0
-561 0
-562 0
-563 0
-591 0
-592 0
-593 0
-653 0
-654 0
-655 0
-657 0
-662 0
-663 0
-666 0
-668 0
-731 0
-732 0
-736 0
-774 0
-775 0
-777 0
-861 0
-862 0
-863 0
-866 0
-868 0
-917 0
-918 0
-932 0
-938 0
-948 0
-957 0
-977 0
-992 0
-997 0
-461 0
-781 0
-791 0
-881 0
-891 0
-223 0
-323 0
-583 0
-683 0
-693 0
-723 0
-823 0
-214 0
-614 0
-754 0
-854 0
-275 0
-285 0
-385 0
-555 0
-715 0
-725 0
-755 0
-286 0
-296 0
-386 0
-396 0
-626 0
-636 0
-746 0
-766 0
-846 0
-257 0
-357 0
-617 0
-627 0
-268 0
-348 0
-368 0
-688 0
-888 0
-988 0
-559 0
-579 0
-819 0
-829 0
-879 0
121 122 123 124 125 126 127 128 129 0
141 142 143 144 145 146 147 148 149 0
181 182 183 184 185 186 187 188 189 0
211 212 213 214 215 216 217 218 219 0
221 222 223 224 225 226 227 228 229 0
231 232 233 234 235 236 237 238 239 0
251 252 253 254 255 256 257 258 259 0
261 262 263 264 265 266 267 268 269 0
271 272 273 274 275 276 277 278 279 0
281 282 283 284 285 286 287 288 289 0
291 292 293 294 295 296 297 298 299 0
311 312 313 314 315 316 317 318 319 0
321 322 323 324 325 326 327 328 329 0
341 342 343 344 345 346 347 348 349 0
351 352 353 354 355 356 357 358 359 0
361 362 363 364 365 366 367 368 369 0
381 382 383 384 385 386 387 388 389 0
391 392 393 394 395 396 397 398 399 0
411 412 413 414 415 416 417 418 419 0
461 462 463 464 465 466 467 468 469 0
491 492 493 494 495 496 497 498 499 0
521 522 523 524 525 526 527 528 529 0
531 532 533 534 535 536 537 538 539 0
551 552 553 554 555 556 557 558 559 0
571 572 573 574 575 576 577 578 579 0
581 582 583 584 585 586 587 588 589 0
611 612 613 614 615 616 617 618 619 0
621 622 623 624 625 626 627 628 629 0
631 632 633 634 635 636 637 638 639 0
641 642 643 644 645 646 647 648 649 0
671 672 673 674 675 676 677 678 679 0
681 682 683 684 685 686 687 688 689 0
691 692 693 694 695 696 697 698 699 0
711 712 713 714 715 716 717 718 719 0
721 722 723 724 725 726 727 728 729 0
741 742 743 744 745 746 747 748 749 0
751 752 753 754 755 756 757 758 759 0
761 762 763 764 765 766 767 768 769 0
781 782 783 784 785 786 787 788 789 0
791 792 793 794 795 796 797 798 799 0
811 812 813 814 815 816 817 818 819 0
821 822 823 824 825 826 827 828 829 0
831 832 833 834 835 836 837 838 839 0
841 842 843 844 845 846 847 848 849 0
851 852 853 854 855 856 857 858 859 0
871 872 873 874 875 876 877 878 879 0
881 882 883 884 885 886 887 888 889 0
891 892 893 894 895 896 897 898 899 0
921 922 923 924 925 926 927 928 929 0
961 962 963 964 965 966 967 968 969 0
981 982 983 984 985 986 987 988 989 0
-211 -311 0
-211 -411 0
-211 -711 0
-211 -811 0
-311 -411 0
-311 -711 0
-311 -811 0
-411 -711 0
-411 -811 0
-711 -811 0
-714 -814 0
-215 -315 0
-215 -615 0
-315 -615 0
-217 -317 0
-217 -717 0
-217 -817 0
-317 -717 0
-317 -817 0
-717 -817 0
-218 -318 0
-218 -418 0
-218 -618 0
-218 -818 0
-318 -418 0
-318 -618 0
-318 -818 0
-418 -618 0
-418 -818 0
-618 -818 0
-219 -319 0
-121 -221 0
-121 -321 0
-121 -521 0
-121 -721 0
-121 -821 0
-221 -321 0
-221 -521 0
-221 -721 0
-221 -821 0
-321 -521 0
-321 -721 0
-321 -821 0
-521 -721 0
-521 -821 0
-721 -821 0
-522 -622 0
-522 -722 0
-522 -822 0
-522 -922 0
-622 -722 0
-622 -822 0
-622 -922 0
-722 -822 0
-722 -922 0
-822 -922 0
-523 -623 0
-225 -325 0
-225 -525 0
-225 -625 0
-325 -525 0
-325 -625 0
-525 -625 0
-226 -326 0
-226 -726 0
-226 -826 0
-326 -726 0
-326 -826 0
-726 -826 0
-227 -327 0
-227 -727 0
-227 -827 0
-227 -927 0
-327 -727 0
-327 -827 0
-327 -927 0
-727 -827 0
-727 -927 0
-827 -927 0
-228 -328 0
-228 -628 0
-228 -828 0
-228 -928 0
-328 -628 0
-328 -828 0
-328 -928 0
-628 -828 0
-628 -928 0
-828 -928 0
-129 -229 0
-129 -329 0
-129 -529 0
-229 -329 0
-229 -529 0
-329 -529 0
-231 -531 0
-231 -831 0
-531 -831 0
-532 -632 0
-532 -832 0
-632 -832 0
-236 -836 0
-238 -638 0
-238 -838 0
-638 -838 0
-141 -341 0
-141 -741 0
-141 -841 0
-341 -741 0
-341 -841 0
-741 -841 0
-343 -643 0
-343 -743 0
-343 -843 0
-643 -743 0
-643 -843 0
-743 -843 0
-346 -646 0
-648 -848 0
-149 -349 0
-149 -849 0
-349 -849 0
-253 -353 0
-253 -553 0
-253 -753 0
-253 -853 0
-353 -553 0
-353 -753 0
-353 -853 0
-553 -753 0
-553 -853 0
-753 -853 0
-255 -355 0
-757 -857 0
-259 -359 0
-259 -859 0
-359 -859 0
-261 -361 0
-261 -761 0
-361 -761 0
-762 -962 0
-263 -363 0
-263 -763 0
-363 -763 0
-266 -366 0
-266 -466 0
-366 -466 0
-468 -968 0
-274 -674 0
-274 -874 0
-674 -874 0
-575 -675 0
-277 -677 0
-277 -877 0
-677 -877 0
-181 -281 0
-181 -381 0
-181 -581 0
-281 -381 0
-281 -581 0
-381 -581 0
-582 -682 0
-582 -782 0
-582 -882 0
-582 -982 0
-682 -782 0
-682 -882 0
-682 -982 0
-782 -882 0
-782 -982 0
-882 -982 0
-283 -383 0
-283 -783 0
-283 -883 0
-383 -783 0
-383 -883 0
-783 -883 0
-184 -284 0
-184 -684 0
-184 -784 0
-184 -884 0
-284 -684 0
-284 -784 0
-284 -884 0
-684 -784 0
-684 -884 0
-784 -884 0
-585 -685 0
-585 -785 0
-685 -785 0
-686 -786 0
-686 -886 0
-786 -886 0
-287 -387 0
-287 -687 0
-287 -787 0
-287 -887 0
-287 -987 0
-387 -687 0
-387 -787 0
-387 -887 0
-387 -987 0
-687 -787 0
-687 -887 0
-687 -987 0
-787 -887 0
-787 -987 0
-887 -987 0
-288 -388 0
-291 -391 0
-291 -491 0
-391 -491 0
-692 -792 0
-692 -892 0
-792 -892 0
-293 -393 0
-293 -793 0
-293 -893 0
-393 -793 0
-393 -893 0
-793 -893 0
-294 -694 0
-294 -794 0
-294 -894 0
-694 -794 0
-694 -894 0
-794 -894 0
-496 -696 0
-496 -796 0
-496 -896 0
-696 -796 0
-696 -896 0
-796 -896 0
-297 -397 0
-297 -697 0
-297 -797 0
-297 -897 0
-397 -697 0
-397 -797 0
-397 -897 0
-697 -797 0
-697 -897 0
-797 -897 0
-121 -141 0
-121 -181 0
-141 -181 0
-129 -149 0
-211 -221 0
-211 -231 0
-211 -261 0
-211 -281 0
-211 -291 0
-221 -231 0
-221 -261 0
-221 -281 0
-221 -291 0
-231 -261 0
-231 -281 0
-231 -291 0
-261 -281 0
-261 -291 0
-281 -291 0
-253 -263 0
-253 -283 0
-253 -293 0
-263 -283 0
-263 -293 0
-283 -293 0
-254 -274 0
-254 -284 0
-254 -294 0
-274 -284 0
-274 -294 0
-284 -294 0
-215 -225 0
-215 -255 0
-225 -255 0
-226 -236 0
-226 -266 0
-236 -266 0
-217 -227 0
-217 -277 0
-217 -287 0
-217 -297 0
-227 -277 0
-227 -287 0
-227 -297 0
-277 -287 0
-277 -297 0
-287 -297 0
-218 -228 0
-218 -238 0
-218 -288 0
-228 -238 0
-228 -288 0
-238 -288 0
-219 -229 0
-219 -259 0
-219 -279 0
-229 -259 0
-229 -279 0
-259 -279 0
-311 -321 0
-311 -341 0
-311 -361 0
-311 -381 0
-311 -391 0
-321 -341 0
-321 -361 0
-321 -381 0
-321 -391 0
-341 -361 0
-341 -381 0
-341 -391 0
-361 -381 0
-361 -391 0
-381 -391 0
-343 -353 0
-343 -363 0
-343 -383 0
-343 -393 0
-353 -363 0
-353 -383 0
-353 -393 0
-363 -383 0
-363 -393 0
-383 -393 0
-315 -325 0
-315 -355 0
-325 -355 0
-326 -346 0
-326 -366 0
-346 -366 0
-317 -327 0
-317 -387 0
-317 -397 0
-327 -387 0
-327 -397 0
-387 -397 0
-318 -328 0
-318 -388 0
-328 -388 0
-319 -329 0
-319 -349 0
-319 -359 0
-329 -349 0
-329 -359 0
-349 -359 0
-411 -491 0
-466 -496 0
-418 -468 0
-521 -531 0
-521 -581 0
-531 -581 0
-522 -532 0
-522 -582 0
-532 -582 0
-523 -553 0
-525 -575 0
-525 -585 0
-575 -585 0
-622 -632 0
-622 -682 0
-622 -692 0
-632 -682 0
-632 -692 0
-682 -692 0
-623 -643 0
-674 -684 0
-674 -694 0
-684 -694 0
-615 -625 0
-615 -675 0
-615 -685 0
-625 -675 0
-625 -685 0
-675 -685 0
-646 -686 0
-646 -696 0
-686 -696 0
-677 -687 0
-677 -697 0
-687 -697 0
-618 -628 0
-618 -638 0
-618 -648 0
-628 -638 0
-628 -648 0
-638 -648 0
-711 -721 0
-711 -741 0
-711 -761 0
-721 -741 0
-721 -761 0
-741 -761 0
-722 -762 0
-722 -782 0
-722 -792 0
-762 -782 0
-762 -792 0
-782 -792 0
-743 -753 0
-743 -763 0
-743 -783 0
-743 -793 0
-753 -763 0
-753 -783 0
-753 -793 0
-763 -783 0
-763 -793 0
-783 -793 0
-714 -784 0
-714 -794 0
-784 -794 0
-726 -786 0
-726 -796 0
-786 -796 0
-717 -727 0
-717 -757 0
-717 -787 0
-717 -797 0
-727 -757 0
-727 -787 0
-727 -797 0
-757 -787 0
-757 -797 0
-787 -797 0
-811 -821 0
-811 -831 0
-811 -841 0
-821 -831 0
-821 -841 0
-831 -841 0
-822 -832 0
-822 -882 0
-822 -892 0
-832 -882 0
-832 -892 0
-882 -892 0
-843 -853 0
-843 -883 0
-843 -893 0
-853 -883 0
-853 -893 0
-883 -893 0
-814 -874 0
-814 -884 0
-814 -894 0
-874 -884 0
-874 -894 0
-884 -894 0
-826 -836 0
-826 -886 0
-826 -896 0
-836 -886 0
-836 -896 0
-886 -896 0
-817 -827 0
-817 -857 0
-817 -877 0
-817 -887 0
-817 -897 0
-827 -857 0
-827 -877 0
-827 -887 0
-827 -897 0
-857 -877 0
-857 -887 0
-857 -897 0
-877 -887 0
-877 -897 0
-887 -897 0
-818 -828 0
-818 -838 0
-818 -848 0
-828 -838 0
-828 -848 0
-838 -848 0
-849 -859 0
-922 -962 0
-922 -982 0
-962 -982 0
-927 -987 0
-928 -968 0
-121 -129 0
-141 -149 0
-181 -184 0
-211 -215 0
-211 -217 0
-211 -218 0
-211 -219 0
-215 -217 0
-215 -218 0
-215 -219 0
-217 -218 0
-217 -219 0
-218 -219 0
-221 -225 0
-221 -226 0
-221 -227 0
-221 -228 0
-221 -229 0
-225 -226 0
-225 -227 0
-225 -228 0
-225 -229 0
-226 -227 0
-226 -228 0
-226 -229 0
-227 -228 0
-227 -229 0
-228 -229 0
-231 -236 0
-231 -238 0
-236 -238 0
-253 -254 0
-253 -255 0
-253 -259 0
-254 -255 0
-254 -259 0
-255 -259 0
-261 -263 0
-261 -266 0
-263 -266 0
-274 -277 0
-274 -279 0
-277 -279 0
-281 -283 0
-281 -284 0
-281 -287 0
-281 -288 0
-283 -284 0
-283 -287 0
-283 -288 0
-284 -287 0
-284 -288 0
-287 -288 0
-291 -293 0
-291 -294 0
-291 -297 0
-293 -294 0
-293 -297 0
-294 -297 0
-311 -315 0
-311 -317 0
-311 -318 0
-311 -319 0
-315 -317 0
-315 -318 0
-315 -319 0
-317 -318 0
-317 -319 0
-318 -319 0
-321 -325 0
-321 -326 0
-321 -327 0
-321 -328 0
-321 -329 0
-325 -326 0
-325 -327 0
-325 -328 0
-325 -329 0
-326 -327 0
-326 -328 0
-326 -329 0
-327 -328 0
-327 -329 0
-328 -329 0
-341 -343 0
-341 -346 0
-341 -349 0
-343 -346 0
-343 -349 0
-346 -349 0
-353 -355 0
-353 -359 0
-355 -359 0
-361 -363 0
-361 -366 0
-363 -366 0
-381 -383 0
-381 -387 0
-381 -388 0
-383 -387 0
-383 -388 0
-387 -388 0
-391 -393 0
-391 -397 0
-393 -397 0
-411 -418 0
-466 -468 0
-491 -496 0
-521 -522 0
-521 -523 0
-521 -525 0
-521 -529 0
-522 -523 0
-522 -525 0
-522 -529 0
-523 -525 0
-523 -529 0
-525 -529 0
-531 -532 0
-581 -582 0
-581 -585 0
-582 -585 0
-615 -618 0
-622 -623 0
-622 -625 0
-622 -628 0
-623 -625 0
-623 -628 0
-625 -628 0
-632 -638 0
-643 -646 0
-643 -648 0
-646 -648 0
-674 -675 0
-674 -677 0
-675 -677 0
-682 -684 0
-682 -685 0
-682 -686 0
-682 -687 0
-684 -685 0
-684 -686 0
-684 -687 0
-685 -686 0
-685 -687 0
-686 -687 0
-692 -694 0
-692 -696 0
-692 -697 0
-694 -696 0
-694 -697 0
-696 -697 0
-711 -714 0
-711 -717 0
-714 -717 0
-721 -722 0
-721 -726 0
-721 -727 0
-722 -726 0
-722 -727 0
-726 -727 0
-741 -743 0
-753 -757 0
-761 -762 0
-761 -763 0
-762 -763 0
-782 -783 0
-782 -784 0
-782 -785 0
-782 -786 0
-782 -787 0
-783 -784 0
-783 -785 0
-783 -786 0
-783 -787 0
-784 -785 0
-784 -786 0
-784 -787 0
-785 -786 0
-785 -787 0
-786 -787 0
-792 -793 0
-792 -794 0
-792 -796 0
-792 -797 0
-793 -794 0
-793 -796 0
-793 -797 0
-794 -796 0
-794 -797 0
-796 -797 0
-811 -814 0
-811 -817 0
-811 -818 0
-814 -817 0
-814 -818 0
-817 -818 0
-821 -822 0
-821 -826 0
-821 -827 0
-821 -828 0
-822 -826 0
-822 -827 0
-822 -828 0
-826 -827 0
-826 -828 0
-827 -828 0
-831 -832 0
-831 -836 0
-831 -838 0
-832 -836 0
-832 -838 0
-836 -838 0
-841 -843 0
-841 -848 0
-841 -849 0
-843 -848 0
-843 -849 0
-848 -849 0
-853 -857 0
-853 -859 0
-857 -859 0
-874 -877 0
-882 -883 0
-882 -884 0
-882 -886 0
-882 -887 0
-883 -884 0
-883 -886 0
-883 -887 0
-884 -886 0
-884 -887 0
-886 -887 0
-892 -893 0
-892 -894 0
-892 -896 0
-892 -897 0
-893 -894 0
-893 -896 0
-893 -897 0
-894 -896 0
-894 -897 0
-896 -897 0
-922 -927 0
-922 -928 0
-927 -928 0
-962 -968 0
-982 -987 0
-211 -221 0
-211 -231 0
-221 -231 0
-311 -321 0
-341 -361 0
-281 -291 0
-381 -391 0
-521 -531 0
-711 -721 0
-811 -821 0
-811 -831 0
-821 -831 0
-741 -761 0
-522 -532 0
-622 -632 0
-682 -692 0
-822 -832 0
-782 -792 0
-882 -892 0
-253 -263 0
-343 -353 0
-343 -363 0
-353 -363 0
-283 -293 0
-383 -393 0
-743 -753 0
-743 -763 0
-753 -763 0
-843 -853 0
-783 -793 0
-883 -893 0
-274 -284 0
-274 -294 0
-284 -294 0
-674 -684 0
-674 -694 0
-684 -694 0
-784 -794 0
-874 -884 0
-874 -894 0
-884 -894 0
-215 -225 0
-315 -325 0
-615 -625 0
-575 -585 0
-675 -685 0
-226 -236 0
-346 -366 0
-686 -696 0
-826 -836 0
-786 -796 0
-886 -896 0
-217 -227 0
-317 -327 0
-277 -287 0
-277 -297 0
-287 -297 0
-387 -397 0
-677 -687 0
-677 -697 0
-687 -697 0
-717 -727 0
-817 -827 0
-787 -797 0
-877 -887 0
-877 -897 0
-887 -897 0
-218 -228 0
-218 -238 0
-228 -238 0
-318 -328 0
-618 -628 0
-618 -638 0
-628 -638 0
-818 -828 0
-818 -838 0
-828 -838 0
-219 -229 0
-319 -329 0
-349 -359 0
-849 -859 0
-121 -211 0
-121 -221 0
-121 -231 0
-121 -311 0
-121 -321 0
-211 -311 0
-211 -321 0
-221 -311 0
-221 -321 0
-231 -311 0
-231 -321 0
-141 -261 0
-141 -341 0
-141 -361 0
-261 -341 0
-261 -361 0
-181 -281 0
-181 -291 0
-181 -381 0
-181 -391 0
-281 -381 0
-281 -391 0
-291 -381 0
-291 -391 0
-411 -521 0
-411 -531 0
-491 -581 0
-711 -811 0
-711 -821 0
-711 -831 0
-721 -811 0
-721 -821 0
-721 -831 0
-741 -841 0
-761 -841 0
-522 -622 0
-522 -632 0
-532 -622 0
-532 -632 0
-582 -682 0
-582 -692 0
-722 -822 0
-722 -832 0
-722 -922 0
-822 -922 0
-832 -922 0
-762 -962 0
-782 -882 0
-782 -892 0
-782 -982 0
-792 -882 0
-792 -892 0
-792 -982 0
-882 -982 0
-892 -982 0
-253 -343 0
-253 -353 0
-253 -363 0
-263 -343 0
-263 -353 0
-263 -363 0
-283 -383 0
-283 -393 0
-293 -383 0
-293 -393 0
-523 -623 0
-553 -643 0
-743 -843 0
-743 -853 0
-753 -843 0
-753 -853 0
-763 -843 0
-763 -853 0
-783 -883 0
-783 -893 0
-793 -883 0
-793 -893 0
-184 -274 0
-184 -284 0
-184 -294 0
-714 -814 0
-784 -874 0
-784 -884 0
-784 -894 0
-794 -874 0
-794 -884 0
-794 -894 0
-215 -315 0
-215 -325 0
-225 -315 0
-225 -325 0
-255 -355 0
-525 -615 0
-525 -625 0
-575 -675 0
-575 -685 0
-585 -675 0
-585 -685 0
-226 -326 0
-236 -326 0
-266 -346 0
-266 -366 0
-466 -646 0
-496 -686 0
-496 -696 0
-726 -826 0
-726 -836 0
-786 -886 0
-786 -896 0
-796 -886 0
-796 -896 0
-217 -317 0
-217 -327 0
-227 -317 0
-227 -327 0
-277 -387 0
-277 -397 0
-287 -387 0
-287 -397 0
-297 -387 0
-297 -397 0
-717 -817 0
-717 -827 0
-717 -927 0
-727 -817 0
-727 -827 0
-727 -927 0
-817 -927 0
-827 -927 0
-757 -857 0
-787 -877 0
-787 -887 0
-787 -897 0
-787 -987 0
-797 -877 0
-797 -887 0
-797 -897 0
-797 -987 0
-877 -987 0
-887 -987 0
-897 -987 0
-218 -318 0
-218 -328 0
-228 -318 0
-228 -328 0
-238 -318 0
-238 -328 0
-288 -388 0
-418 -618 0
-418 -628 0
-418 -638 0
-468 -648 0
-818 -928 0
-828 -928 0
-838 -928 0
-848 -968 0
-129 -219 0
-129 -229 0
-129 -319 0
-129 -329 0
-219 -319 0
-219 -329 0
-229 -319 0
-229 -329 0
-149 -259 0
-149 -349 0
-149 -359 0
-259 -349 0
-259 -359 0
